Automatically generated mesh
       0
Gamma
7 3 5
0 0 0
