Sr16 Cu8 O24                            
   1.0000000000000000     
     7.8855506509158539    0.0000000000000000    0.0000000000000000
     0.0000000000000000   12.6159502264320018    0.0000000000000000
     0.0000000000000000    0.0000000000000000    6.9997964737977165
   Sr   Cu   O 
    16     8    24
Direct
  0.5000000000000000  0.1471052333236565  0.2499986922689750
  0.7500000000000000  0.3528947666763435  0.0000013077310250
  0.7500000000000000  0.6471052333236570  0.0000013077310250
  0.5000000000000000  0.8528947666763430  0.2499986922689750
  0.0000000000000000  0.1471052333236565  0.2499986922689750
  0.2500000000000000  0.3528947666763435  0.0000013077310250
  0.2500000000000000  0.6471052333236570  0.0000013077310250
  0.0000000000000000  0.8528947666763430  0.2499986922689750
  0.5000000000000000  0.1471046129578277  0.7500000729930351
  0.7500000000000000  0.3528953870421723  0.4999999270069652
  0.7500000000000000  0.6471046129578276  0.4999999270069652
  0.5000000000000000  0.8528953870421724  0.7500000729930351
  0.0000000000000000  0.1471046129578277  0.7500000729930351
  0.2500000000000000  0.3528953870421723  0.4999999270069652
  0.2500000000000000  0.6471046129578276  0.4999999270069652
  0.0000000000000000  0.8528953870421724  0.7500000729930351
  0.2500000000000000  0.0000000000000000  0.0000018632383835
  0.0000000000000000  0.5000000000000000  0.2499981367616166
  0.7500000000000000  0.0000000000000000  0.0000018632383835
  0.5000000000000000  0.5000000000000000  0.2499981367616166
  0.2500000000000000  0.0000000000000000  0.4999931687493767
  0.0000000000000000  0.5000000000000000  0.7500068312506234
  0.7500000000000000  0.0000000000000000  0.4999931687493767
  0.5000000000000000  0.5000000000000000  0.7500068312506234
  0.0000000000000000  0.0000000000000000  0.0000036627143868
  0.0000000000000000  0.3447968029731761  0.2500007419352274
  0.2500000000000000  0.1552031970268239 -0.0000007419352270
  0.2500000000000000  0.5000000000000000  0.2499963372856132
  0.2500000000000000  0.8447968029731762 -0.0000007419352270
  0.0000000000000000  0.6552031970268238  0.2500007419352274
  0.5000000000000000  0.0000000000000000  0.0000036627143868
  0.5000000000000000  0.3447968029731761  0.2500007419352274
  0.7500000000000000  0.1552031970268239 -0.0000007419352270
  0.7500000000000000  0.5000000000000000  0.2499963372856132
  0.7500000000000000  0.8447968029731762 -0.0000007419352270
  0.5000000000000000  0.6552031970268238  0.2500007419352274
  0.0000000000000000  0.0000000000000000  0.4999935533096520
  0.0000000000000000  0.3447954013996327  0.7500012270772117
  0.2500000000000000  0.1552045986003673  0.4999987729227883
  0.2500000000000000  0.5000000000000000  0.7500064466903482
  0.2500000000000000  0.8447954013996327  0.4999987729227883
  0.0000000000000000  0.6552045986003673  0.7500012270772117
  0.5000000000000000  0.0000000000000000  0.4999935533096520
  0.5000000000000000  0.3447954013996327  0.7500012270772117
  0.7500000000000000  0.1552045986003672  0.4999987729227883
  0.7500000000000000  0.5000000000000000  0.7500064466903482
  0.7500000000000000  0.8447954013996327  0.4999987729227883
  0.5000000000000000  0.6552045986003673  0.7500012270772117

