Auto
50
line-mode
reciprocal
    0.0000000000     0.0000000000     0.0000000000 1    GAMMA
    0.5000000000     0.0000000000     0.0000000000 1    X 

    0.5000000000     0.0000000000     0.0000000000 1    X  
    0.5000000000     0.5000000000     0.0000000000 1    M  

    0.5000000000     0.5000000000     0.0000000000 1    M
    0.0000000000     0.0000000000     0.5000000000 1    Z  

    0.0000000000     0.0000000000     0.5000000000 1    Z
    0.0000000000     0.5000000000     0.0000000000 1    Y  

    0.0000000000     0.5000000000     0.0000000000 1    Y  
    0.0000000000     0.0000000000     0.0000000000 1    GAMMA  

