Sr16 Cu8 O24                             
1.0     
   7.7614107163589070   0.0000000000000000    0.0000000000000000
   0.0000000000000000  12.4335188162206336    0.0000000000000000
   0.0000000000000000   0.0000000000000000    7.4837404545831250
Sr Cu O 
16 8 24
direct
  0.5000000000000000  0.1371019537857229  0.2494794916006687
  0.7500000000000000  0.3628980462142771  0.0005205083993313
  0.7500000000000000  0.6371019537857231  0.0005205083993313
  0.5000000000000000  0.8628980462142769  0.2494794916006687
  0.0000000000000000  0.1371019537857229  0.2494794916006687
  0.2500000000000000  0.3628980462142771  0.0005205083993313
  0.2500000000000000  0.6371019537857231  0.0005205083993313
  0.0000000000000000  0.8628980462142769  0.2494794916006687
  0.5000000000000000  0.1510273897834171  0.7524398836414139
  0.7500000000000000  0.3489726102165826  0.4975601163585857
  0.7500000000000000  0.6510273897834172  0.4975601163585857
  0.5000000000000000  0.8489726102165828  0.7524398836414139
  0.0000000000000000  0.1510273897834171  0.7524398836414139
  0.2500000000000000  0.3489726102165826  0.4975601163585857
  0.2500000000000000  0.6510273897834172  0.4975601163585857
  0.0000000000000000  0.8489726102165828  0.7524398836414139
  0.2500000000000000  0.0000000000000000 -0.0091463314454870
  0.0000000000000000  0.5000000000000000  0.2591463314454869
  0.7500000000000000  0.0000000000000000 -0.0091463314454870
  0.5000000000000000  0.5000000000000000  0.2591463314454869
  0.2500000000000000  0.0000000000000000  0.5112401563609691
  0.0000000000000000  0.5000000000000000  0.7387598436390309
  0.7500000000000000  0.0000000000000000  0.5112401563609691
  0.5000000000000000  0.5000000000000000  0.7387598436390309
  0.0000000000000000  0.0000000000000000 -0.0254851123383724
  0.0000000000000000  0.3415362702962597  0.2662327319457244
  0.2500000000000000  0.1584637297037403 -0.0162327319457244
  0.2500000000000000  0.5000000000000000  0.2754851123383725
  0.2500000000000000  0.8415362702962598 -0.0162327319457244
  0.0000000000000000  0.6584637297037402  0.2662327319457244
  0.5000000000000000  0.0000000000000000 -0.0254851123383724
  0.5000000000000000  0.3415362702962597  0.2662327319457244
  0.7500000000000000  0.1584637297037403 -0.0162327319457244
  0.7500000000000000  0.5000000000000000  0.2754851123383725
  0.7500000000000000  0.8415362702962598 -0.0162327319457244
  0.5000000000000000  0.6584637297037402  0.2662327319457244
  0.0000000000000000  0.0000000000000000  0.5294439311398749
  0.0000000000000000  0.3465072922218135  0.7306669961400251
  0.2500000000000000  0.1534927077781864  0.5193330038599749
  0.2500000000000000  0.5000000000000000  0.7205560688601251
  0.2500000000000000  0.8465072922218135  0.5193330038599749
  0.0000000000000000  0.6534927077781865  0.7306669961400251
  0.5000000000000000  0.0000000000000000  0.5294439311398749
  0.5000000000000000  0.3465072922218135  0.7306669961400251
  0.7500000000000000  0.1534927077781864  0.5193330038599749
  0.7500000000000000  0.5000000000000000  0.7205560688601251
  0.7500000000000000  0.8465072922218135  0.5193330038599749
  0.5000000000000000  0.6534927077781865  0.7306669961400251